30
40
5
68
57
65
42
60
0 2
0 17
0 18
1 2
1 28
2 9
2 22
2 28
3 12
3 17
3 24
3 25
3 26
3 28
3 29
4 5
4 10
4 26
5 15
6 13
7 12
8 16
9 21
9 25
10 24
11 14
11 15
11 17
12 16
12 24
12 25
13 20
14 15
14 18
14 19
15 29
16 19
16 24
19 27
20 26
22 9 21 7 28 2
27 26 20 0 14 11
10 13 29 8 25 24
17 16 3 1 19 18
23 15 4 12 5 6
